Instance0
Objective;Best_Integer;Best_Bound
262.6193;639.6325;262.6193
286.5591;639.6325;Fract:7
293.5854;462.8177;Cuts:9
301.5632;462.8177;Cuts:10
306.1297;462.8177;Cuts:8
312.7966;423.2225;Cuts:9
315.4527;423.2225;Cuts:6
318.8574;423.2225;Cuts:9
320.8794;415.0905;Cuts:10
323.1302;415.0905;Cuts:15
324.7867;415.0905;Cuts:8
330.4213;415.0905;LiftProj:7
332.2638;415.0905;LiftProj:5
333.3546;415.0905;LiftProj:4
335.1698;415.0905;LiftProj:4
337.4144;415.0905;LiftProj:6
341.9556;415.0905;LiftProj:5
344.8138;415.0905;Cuts:6
349.0056;415.0905;LiftProj:11
351.2383;415.0905;LiftProj:4
352.1982;415.0905;LiftProj:6
354.2050;415.0905;LiftProj:5
355.0247;415.0905;LiftProj:7
356.1831;415.0905;LiftProj:5
358.4324;415.0905;LiftProj:4
359.7838;415.0905;LiftProj:7
360.4316;415.0905;LiftProj:5
360.6568;415.0905;LiftProj:6
360.7380;415.0905;LiftProj:5
361.1767;415.0905;LiftProj:5
361.6945;415.0905;LiftProj:6
363.0958;415.0905;LiftProj:5
363.7882;415.0905;LiftProj:9
363.9173;415.0905;LiftProj:5
364.0836;415.0905;LiftProj:4
364.4238;415.0905;LiftProj:4
364.4909;415.0905;LiftProj:4
365.3969;415.0905;365.5496
CPXPARAM_MIP_Cuts_Gomory-LiftProj:Gomory 20
CPXPARAM_MIP_Cuts_Gomory-LiftProj:LiftProj 1
Instance1
Objective;Best_Integer;Best_Bound
integral;262.6193;262.6193
CPXPARAM_MIP_Cuts_Gomory-LiftProj:Gomory 0
CPXPARAM_MIP_Cuts_Gomory-LiftProj:LiftProj 0
Instance2
Objective;Best_Integer;Best_Bound
269.4766;639.6325;269.4766
275.7599;639.6325;Fract:5
287.2466;423.2225;Cuts:13
307.4249;423.2225;Cuts:11
315.3772;415.0905;Cuts:7
321.6257;415.0905;Cuts:10
325.5060;415.0905;LiftProj:9
330.6593;415.0905;Cuts:8
337.7905;415.0905;LiftProj:6
340.1495;415.0905;LiftProj:4
347.8323;415.0905;Cuts:9
349.6850;415.0905;LiftProj:4
351.5195;415.0905;LiftProj:6
352.7040;415.0905;LiftProj:6
353.8668;415.0905;LiftProj:7
360.8315;415.0905;LiftProj:7
364.1839;415.0905;LiftProj:5
368.3327;415.0905;LiftProj:9
371.5693;415.0905;LiftProj:6
373.1008;415.0905;LiftProj:7
373.3017;415.0905;LiftProj:3
373.9044;415.0905;LiftProj:6
374.8068;415.0905;LiftProj:3
375.3864;415.0905;LiftProj:5
375.7167;415.0905;LiftProj:6
376.1327;415.0905;LiftProj:4
376.3065;415.0905;LiftProj:6
376.6385;415.0905;LiftProj:6
376.9444;415.0905;LiftProj:5
377.3032;415.0905;LiftProj:4
379.1311;415.0905;LiftProj:8
379.9824;415.0905;LiftProj:11
380.2342;415.0905;LiftProj:4
381.0494;415.0905;LiftProj:5
381.1899;415.0905;LiftProj:7
381.3332;415.0905;LiftProj:4
381.3380;415.0905;LiftProj:7
381.5616;415.0905;LiftProj:4
382.1508;415.0905;LiftProj:9
382.5210;415.0905;LiftProj:7
383.5384;415.0905;LiftProj:5
383.6757;415.0905;LiftProj:10
387.8299;415.0905;388.6843
CPXPARAM_MIP_Cuts_Gomory-LiftProj:Gomory 24
CPXPARAM_MIP_Cuts_Gomory-LiftProj:LiftProj 0
Instance3
Objective;Best_Integer;Best_Bound
314.8220;883.5817;314.8220
integral;314.8876;Fract:1
cutoff;314.8876;40
CPXPARAM_MIP_Cuts_Gomory-LiftProj:Gomory 0
CPXPARAM_MIP_Cuts_Gomory-LiftProj:LiftProj 1
Instance4
Objective;Best_Integer;Best_Bound
405.5114;634.5912;405.5114
410.2840;634.5912;Fract:7
415.5101;455.9855;Cuts:13
419.8278;455.9855;Cuts:9
420.6057;441.1644;Cuts:6
421.1386;441.1644;Cuts:8
421.2190;441.1644;LiftProj:6
422.2389;441.1644;Cuts:9
422.6439;441.1644;Cuts:4
422.8009;441.1644;LiftProj:4
423.0207;441.1644;LiftProj:2
423.4107;441.1644;LiftProj:5
423.8635;441.1644;LiftProj:4
424.0423;441.1644;Cuts:5
424.2802;441.1644;LiftProj:4
424.8561;441.1644;LiftProj:3
425.3567;441.1644;LiftProj:4
425.3835;441.1644;LiftProj:2
425.3913;441.1644;LiftProj:2
425.7897;441.1644;425.9290
CPXPARAM_MIP_Cuts_Gomory-LiftProj:Gomory 12
CPXPARAM_MIP_Cuts_Gomory-LiftProj:LiftProj 1
Instance5
Objective;Best_Integer;Best_Bound
405.5114;693.8542;405.5114
integral;405.9187;405.9187
CPXPARAM_MIP_Cuts_Gomory-LiftProj:Gomory 0
CPXPARAM_MIP_Cuts_Gomory-LiftProj:LiftProj 0
Instance6
Objective;Best_Integer;Best_Bound
405.5114;648.3061;405.5114
411.7817;648.3061;Cuts:7
415.9508;449.4074;Cuts:9
417.6580;449.4074;Cuts:8
419.9596;449.4074;Cuts:9
422.1971;449.4074;Cuts:8
422.8645;449.4074;LiftProj:5
423.8253;449.4074;LiftProj:4
424.3924;449.4074;LiftProj:5
425.9311;449.4074;LiftProj:3
426.5154;441.1644;LiftProj:5
426.9175;441.1644;LiftProj:4
427.2458;441.1644;LiftProj:4
427.6140;441.1644;LiftProj:4
427.7296;441.1644;LiftProj:3
427.7643;441.1644;LiftProj:3
427.9291;441.1644;LiftProj:3
428.0902;441.1644;LiftProj:4
428.4924;441.1644;LiftProj:4
428.5969;441.1644;LiftProj:3
428.7312;441.1644;LiftProj:3
428.8610;441.1644;LiftProj:3
428.9001;441.1644;LiftProj:2
429.5785;441.1644;430.3954
CPXPARAM_MIP_Cuts_Gomory-LiftProj:Gomory 13
CPXPARAM_MIP_Cuts_Gomory-LiftProj:LiftProj 1
Instance7
Objective;Best_Integer;Best_Bound
integral;425.0746;425.0746
CPXPARAM_MIP_Cuts_Gomory-LiftProj:Gomory 0
CPXPARAM_MIP_Cuts_Gomory-LiftProj:LiftProj 0
Instance8
Objective;Best_Integer;Best_Bound
484.8467;648.8417;484.8467
509.6615;648.8417;Fract:7
515.5588;626.4130;Cuts:12
519.2157;626.4130;Cuts:10
520.9405;607.3004;Cuts:8
523.6365;607.3004;Cuts:8
523.9800;607.3004;Cuts:5
524.6734;607.3004;Cuts:9
525.6730;607.3004;Cuts:8
525.9240;607.3004;Cuts:7
527.7990;607.3004;LiftProj:4
528.8081;607.3004;LiftProj:4
529.3648;607.3004;Cuts:3
529.7266;607.3004;LiftProj:5
530.1210;607.3004;LiftProj:5
530.4535;607.3004;LiftProj:3
531.0753;607.3004;LiftProj:3
531.9134;607.3004;Cuts:6
532.1550;607.3004;LiftProj:3
532.7170;607.3004;LiftProj:5
533.1331;607.3004;LiftProj:4
533.4055;607.3004;LiftProj:4
533.7645;607.3004;LiftProj:4
533.9546;607.3004;LiftProj:4
534.4180;607.3004;LiftProj:7
534.5015;607.3004;LiftProj:3
534.5366;607.3004;LiftProj:1
534.5366;607.3004;534.5667
CPXPARAM_MIP_Cuts_Gomory-LiftProj:Gomory 17
CPXPARAM_MIP_Cuts_Gomory-LiftProj:LiftProj 2
Instance9
Objective;Best_Integer;Best_Bound
integral;484.8467;484.8467
CPXPARAM_MIP_Cuts_Gomory-LiftProj:Gomory 0
CPXPARAM_MIP_Cuts_Gomory-LiftProj:LiftProj 0
Instance10
Objective;Best_Integer;Best_Bound
498.6071;845.6683;498.6071
503.9467;697.1349;Cuts:5
517.2484;648.8417;Cuts:10
528.4788;626.4130;Cuts:9
531.9624;626.4130;Cuts:12
536.9647;589.5104;Cuts:9
537.2664;589.5104;LiftProj:6
539.7943;589.5104;Cuts:10
540.9420;589.5104;Cuts:7
544.0402;589.5104;LiftProj:7
545.3011;589.5104;LiftProj:8
547.5530;589.5104;LiftProj:5
549.5854;589.5104;LiftProj:5
550.5814;589.5104;LiftProj:6
550.7693;589.5104;LiftProj:6
551.7734;589.5104;LiftProj:5
551.9745;589.5104;LiftProj:10
552.6663;589.5104;LiftProj:6
552.8234;589.5104;LiftProj:5
553.5951;589.5104;LiftProj:5
553.8825;589.5104;LiftProj:4
553.9569;589.5104;LiftProj:5
554.1317;589.5104;LiftProj:5
554.3768;589.5104;LiftProj:2
554.5065;589.5104;LiftProj:5
556.7875;589.5104;557.7771
CPXPARAM_MIP_Cuts_Gomory-LiftProj:Gomory 20
CPXPARAM_MIP_Cuts_Gomory-LiftProj:LiftProj 0
Instance11
Objective;Best_Integer;Best_Bound
integral;561.1585;561.1585
CPXPARAM_MIP_Cuts_Gomory-LiftProj:Gomory 0
CPXPARAM_MIP_Cuts_Gomory-LiftProj:LiftProj 0
Instance12
Objective;Best_Integer;Best_Bound
386.2283;534.4657;386.2283
389.8771;534.4657;Cuts:6
398.6827;526.4159;Cuts:11
404.4484;474.3633;Cuts:10
409.2732;474.3633;Cuts:13
414.3195;474.3633;Cuts:10
416.2282;465.9177;Cuts:9
417.5494;465.9177;Cuts:8
418.6909;465.9177;Cuts:10
421.8475;465.9177;Cuts:11
423.0943;465.9177;LiftProj:11
424.3648;465.9177;LiftProj:7
425.4108;465.9177;LiftProj:9
426.8197;465.9177;LiftProj:9
428.1678;465.9177;LiftProj:6
428.8531;465.9177;LiftProj:6
429.6106;465.9177;LiftProj:7
430.2565;465.9177;LiftProj:6
430.8302;465.9177;LiftProj:8
432.5296;465.9177;LiftProj:9
432.9855;465.9177;LiftProj:8
433.0359;465.9177;LiftProj:7
433.8382;465.9177;LiftProj:6
434.1187;465.9177;LiftProj:6
434.4464;465.9177;LiftProj:7
434.6019;465.9177;LiftProj:6
435.3529;465.9177;LiftProj:6
435.4401;465.9177;LiftProj:6
435.4401;465.9177;435.6794
CPXPARAM_MIP_Cuts_Gomory-LiftProj:Gomory 19
CPXPARAM_MIP_Cuts_Gomory-LiftProj:LiftProj 0
Instance13
Objective;Best_Integer;Best_Bound
integral;389.1110;389.1110
CPXPARAM_MIP_Cuts_Gomory-LiftProj:Gomory 0
CPXPARAM_MIP_Cuts_Gomory-LiftProj:LiftProj 0
Instance14
Objective;Best_Integer;Best_Bound
386.2283;534.4657;386.2283
390.0124;534.4657;Fract:6
398.6577;526.4159;Cuts:11
404.3451;474.3633;Cuts:13
408.4526;465.9177;Cuts:11
409.8970;465.9177;Cuts:5
410.5871;465.9177;LiftProj:8
416.5698;465.9177;LiftProj:5
423.3201;465.9177;Cuts:13
425.4743;465.9177;Cuts:11
426.1085;465.9177;Cuts:12
427.3844;465.9177;LiftProj:5
428.1034;465.9177;LiftProj:6
428.5334;465.9177;LiftProj:5
429.7885;465.9177;LiftProj:8
431.7216;465.9177;LiftProj:12
432.0918;465.9177;LiftProj:8
433.7088;465.9177;LiftProj:6
434.6130;465.9177;LiftProj:6
435.2953;465.9177;LiftProj:8
435.6590;465.9177;LiftProj:5
436.1407;465.9177;LiftProj:6
436.4110;465.9177;LiftProj:5
436.4887;465.9177;LiftProj:14
436.5779;465.9177;LiftProj:8
436.5779;465.9177;436.8068
CPXPARAM_MIP_Cuts_Gomory-LiftProj:Gomory 18
CPXPARAM_MIP_Cuts_Gomory-LiftProj:LiftProj 0
Instance15
Objective;Best_Integer;Best_Bound
integral;410.1756;410.1756
CPXPARAM_MIP_Cuts_Gomory-LiftProj:Gomory 0
CPXPARAM_MIP_Cuts_Gomory-LiftProj:LiftProj 0
Instance16
Objective;Best_Integer;Best_Bound
417.5617;482.5302;417.5617
420.1512;482.5302;Cuts:6
425.8004;475.1344;Cuts:13
428.9794;465.5226;Cuts:11
429.9666;465.5226;Cuts:5
430.9336;465.5226;Cuts:12
430.9875;465.5226;LiftProj:7
431.7776;465.5226;Cuts:8
432.9009;465.5226;LiftProj:6
434.0886;465.5226;LiftProj:5
435.0369;465.5226;LiftProj:5
436.0761;465.5226;LiftProj:5
436.9897;465.5226;Cuts:5
437.0836;465.5226;LiftProj:9
437.6203;465.5226;LiftProj:5
438.0080;465.5226;Cuts:6
438.2823;465.5226;LiftProj:6
438.4205;465.5226;LiftProj:6
439.5682;465.5226;LiftProj:4
440.0957;465.5226;LiftProj:4
440.1930;465.5226;LiftProj:5
440.7004;465.5226;LiftProj:6
440.7694;465.5226;LiftProj:6
440.8669;465.5226;LiftProj:6
441.1110;465.5226;441.2543
CPXPARAM_MIP_Cuts_Gomory-LiftProj:Gomory 17
CPXPARAM_MIP_Cuts_Gomory-LiftProj:LiftProj 0
Instance17
Objective;Best_Integer;Best_Bound
integral;425.9937;425.9937
CPXPARAM_MIP_Cuts_Gomory-LiftProj:Gomory 0
CPXPARAM_MIP_Cuts_Gomory-LiftProj:LiftProj 0
Instance18
Objective;Best_Integer;Best_Bound
423.0032;673.4267;423.0032
424.4779;591.6412;Cuts:5
427.1854;465.5226;Cuts:8
427.9529;465.5226;Cuts:8
429.3805;465.5226;Cuts:10
430.3089;465.5226;Cuts:8
430.8175;465.5226;LiftProj:8
431.5945;465.5226;LiftProj:6
432.6686;465.5226;Cuts:10
434.0536;465.5226;Cuts:7
434.5228;465.5226;Cuts:11
435.3587;465.5226;Cuts:7
435.6315;465.5226;LiftProj:6
436.1909;465.5226;Cuts:6
436.8634;465.5226;LiftProj:10
437.0522;465.5226;LiftProj:4
437.5384;465.5226;LiftProj:7
438.8320;465.5226;LiftProj:5
439.0868;465.5226;Cuts:11
440.6785;465.5226;LiftProj:5
441.1123;465.5226;LiftProj:4
441.5537;465.5226;LiftProj:4
442.4775;465.5226;LiftProj:5
442.6449;465.5226;LiftProj:3
443.0272;465.5226;LiftProj:5
443.3830;465.5226;LiftProj:4
443.5386;465.5226;LiftProj:4
443.6834;465.5226;LiftProj:5
443.7471;465.5226;LiftProj:5
443.7593;465.5226;LiftProj:7
444.1619;465.5226;444.1650
CPXPARAM_MIP_Cuts_Gomory-LiftProj:Gomory 18
CPXPARAM_MIP_Cuts_Gomory-LiftProj:LiftProj 0
Instance19
Objective;Best_Integer;Best_Bound
integral;446.2379;446.2379
CPXPARAM_MIP_Cuts_Gomory-LiftProj:Gomory 0
CPXPARAM_MIP_Cuts_Gomory-LiftProj:LiftProj 0
Instance20
Objective;Best_Integer;Best_Bound
283.8374;499.7053;283.8374
286.3451;335.4671;Cuts:5
292.2453;335.4671;Cuts:10
295.5661;315.2212;Cuts:8
298.3111;315.2212;Cuts:6
299.1813;315.2212;Cuts:8
300.0363;315.2212;Cuts:6
300.5932;315.2212;Cuts:4
301.6965;315.2212;LiftProj:5
303.1750;315.2212;LiftProj:5
303.7280;315.2212;Cuts:4
303.9503;315.2212;LiftProj:5
304.4531;315.2212;LiftProj:5
305.1925;315.2212;LiftProj:7
308.4262;315.2212;LiftProj:4
310.1115;315.2212;LiftProj:2
310.2794;315.2212;LiftProj:2
310.8494;315.2212;LiftProj:3
314.5228;315.2212;LiftProj:2
cutoff;196;0.00%
CPXPARAM_MIP_Cuts_Gomory-LiftProj:Gomory 9
CPXPARAM_MIP_Cuts_Gomory-LiftProj:LiftProj 0
Instance21
Objective;Best_Integer;Best_Bound
integral;283.8374;283.8374
CPXPARAM_MIP_Cuts_Gomory-LiftProj:Gomory 0
CPXPARAM_MIP_Cuts_Gomory-LiftProj:LiftProj 0
Instance22
Objective;Best_Integer;Best_Bound
286.9244;502.7786;286.9244
294.1139;406.3795;Fract:7
298.0361;392.9654;Cuts:12
301.0392;392.9654;Cuts:9
303.2856;392.1710;Cuts:8
305.7018;315.4732;Cuts:7
307.8305;315.4732;Cuts:10
309.4630;315.4732;Cuts:6
310.5530;315.4732;Cuts:4
311.5026;315.4732;Cuts:4
311.8337;315.4732;Cuts:2
312.2607;315.4732;LiftProj:1
313.1106;315.4732;LiftProj:3
313.3566;315.4732;LiftProj:4
cutoff;164;0.00%
CPXPARAM_MIP_Cuts_Gomory-LiftProj:Gomory 4
CPXPARAM_MIP_Cuts_Gomory-LiftProj:LiftProj 0
Instance23
Objective;Best_Integer;Best_Bound
integral;293.4740;293.4740
CPXPARAM_MIP_Cuts_Gomory-LiftProj:Gomory 0
CPXPARAM_MIP_Cuts_Gomory-LiftProj:LiftProj 0
Instance24
Objective;Best_Integer;Best_Bound
363.2658;473.7492;363.2658
366.0844;458.3613;Fract:7
367.5735;444.0143;Cuts:8
370.0838;399.6484;Cuts:11
373.5779;399.6484;Cuts:7
375.6549;399.6484;Cuts:10
376.0896;399.6484;LiftProj:5
376.1174;399.6484;LiftProj:3
376.6026;399.6484;LiftProj:3
376.6959;399.6484;LiftProj:4
378.1442;399.6484;LiftProj:5
378.4635;399.6484;LiftProj:4
379.2367;399.6484;LiftProj:2
379.2713;399.6484;LiftProj:4
380.3723;399.6484;LiftProj:4
380.8148;399.6484;LiftProj:7
381.2194;399.6484;LiftProj:5
381.8576;399.6484;LiftProj:5
383.4126;399.6484;LiftProj:11
383.4483;399.6484;LiftProj:5
384.0429;396.1684;384.1134
CPXPARAM_MIP_Cuts_Gomory-LiftProj:Gomory 16
CPXPARAM_MIP_Cuts_Gomory-LiftProj:LiftProj 0
Instance25
Objective;Best_Integer;Best_Bound
integral;372.4575;372.4575
CPXPARAM_MIP_Cuts_Gomory-LiftProj:Gomory 0
CPXPARAM_MIP_Cuts_Gomory-LiftProj:LiftProj 0
Instance26
Objective;Best_Integer;Best_Bound
372.1627;476.4585;372.1627
377.5017;476.4585;Fract:5
380.7964;404.2019;Cuts:8
381.9389;404.2019;Cuts:6
382.7808;399.6484;Cuts:7
384.4411;399.6484;Cuts:10
384.8741;399.6484;Cuts:10
385.0569;399.6484;LiftProj:4
385.8263;399.6484;LiftProj:4
386.8208;399.6484;LiftProj:7
386.9249;399.6484;LiftProj:3
387.0054;399.6484;LiftProj:5
387.4531;399.6484;LiftProj:3
388.3408;399.6484;LiftProj:3
388.4172;399.6484;LiftProj:3
388.4964;399.6484;LiftProj:2
388.5554;396.1684;LiftProj:4
388.9344;396.1684;LiftProj:2
389.0349;396.1684;LiftProj:3
389.3654;396.1684;LiftProj:2
389.3904;396.1684;LiftProj:3
389.7995;396.1684;390.1999
CPXPARAM_MIP_Cuts_Gomory-LiftProj:Gomory 13
CPXPARAM_MIP_Cuts_Gomory-LiftProj:LiftProj 0
Instance27
Objective;Best_Integer;Best_Bound
integral;385.0255;385.0255
CPXPARAM_MIP_Cuts_Gomory-LiftProj:Gomory 0
CPXPARAM_MIP_Cuts_Gomory-LiftProj:LiftProj 0
Instance28
Objective;Best_Integer;Best_Bound
601.4591;872.5219;601.4591
604.1950;737.8283;Fract:4
612.1935;696.2579;Cuts:11
613.9272;652.5589;Cuts:7
614.7701;652.5589;Cuts:10
618.2080;652.5589;Cuts:5
618.7373;652.5589;Cuts:5
620.7336;652.5589;LiftProj:3
622.4192;652.5589;Cuts:7
622.9606;652.5589;LiftProj:1
623.3522;652.5589;LiftProj:3
623.6464;652.5589;LiftProj:1
623.8727;652.5589;Cuts:3
623.9006;652.5589;LiftProj:3
624.3594;652.5589;LiftProj:3
624.5316;652.5589;LiftProj:2
625.7381;652.5589;LiftProj:3
625.8010;652.5589;LiftProj:2
629.5213;652.5589;629.8739
CPXPARAM_MIP_Cuts_Gomory-LiftProj:Gomory 10
CPXPARAM_MIP_Cuts_Gomory-LiftProj:LiftProj 3
Instance29
Objective;Best_Integer;Best_Bound
integral;596.9704;596.9704
CPXPARAM_MIP_Cuts_Gomory-LiftProj:Gomory 0
CPXPARAM_MIP_Cuts_Gomory-LiftProj:LiftProj 0
Instance30
Objective;Best_Integer;Best_Bound
601.4591;877.2624;601.4591
603.0527;696.2579;Cuts:4
614.3239;696.2579;Cuts:14
617.4292;652.5589;Cuts:9
620.7676;652.5589;Cuts:8
625.7674;652.5589;Cuts:9
627.3344;652.5589;Cuts:9
630.5963;652.5589;LiftProj:5
631.3758;652.5589;LiftProj:4
632.2834;652.5589;LiftProj:7
632.5491;652.5589;Cuts:7
634.3674;652.5589;LiftProj:6
637.2784;652.5589;LiftProj:7
637.3960;652.5589;Cuts:6
638.4684;652.5589;LiftProj:8
640.3065;652.5589;LiftProj:5
640.5584;652.5589;LiftProj:7
640.6641;652.5589;Cuts:5
643.9924;652.5589;LiftProj:5
647.3645;652.5589;LiftProj:4
648.6649;652.5589;LiftProj:6
648.9643;652.5589;LiftProj:2
649.5824;652.5589;LiftProj:3
649.8044;652.5589;LiftProj:1
649.8222;652.5589;LiftProj:1
cutoff;649.8222;269
CPXPARAM_MIP_Cuts_Gomory-LiftProj:Gomory 15
CPXPARAM_MIP_Cuts_Gomory-LiftProj:LiftProj 0
Instance31
Objective;Best_Integer;Best_Bound
integral;601.4591;601.4591
CPXPARAM_MIP_Cuts_Gomory-LiftProj:Gomory 0
CPXPARAM_MIP_Cuts_Gomory-LiftProj:LiftProj 0
Instance32
Objective;Best_Integer;Best_Bound
285.1772;538.6067;285.1772
296.3193;527.4518;Fract:6
304.2602;398.4261;Cuts:9
307.2516;392.1998;Cuts:8
312.3213;392.1998;Cuts:9
313.1180;392.1998;Cuts:5
315.0920;392.1998;Cuts:5
316.6421;392.1998;LiftProj:5
317.0177;392.1998;Cuts:6
319.0330;392.1998;Cuts:6
320.1301;392.1998;Cuts:4
327.0757;392.1998;LiftProj:4
329.0899;392.1998;LiftProj:4
330.0181;392.1998;LiftProj:3
333.5423;392.1998;LiftProj:3
334.1898;392.1998;Cuts:5
334.8253;392.1998;LiftProj:3
335.1829;392.1998;LiftProj:5
335.7291;392.1998;Cuts:6
338.2439;392.1998;LiftProj:5
339.3974;392.1998;Cuts:11
340.3345;392.1998;LiftProj:4
340.5519;392.1998;LiftProj:5
342.8122;392.1998;LiftProj:5
343.0848;392.1998;LiftProj:4
343.2687;392.1998;LiftProj:4
343.8168;392.1998;LiftProj:5
344.0940;392.1998;LiftProj:4
344.7563;392.1998;LiftProj:5
345.5707;392.1998;LiftProj:4
346.2353;392.1998;LiftProj:8
346.9409;392.1998;LiftProj:4
347.4198;392.1998;LiftProj:4
348.1467;392.1998;LiftProj:5
348.2187;392.1998;LiftProj:5
348.2483;392.1998;LiftProj:4
348.8097;392.1998;349.0020
CPXPARAM_MIP_Cuts_Gomory-LiftProj:Gomory 19
CPXPARAM_MIP_Cuts_Gomory-LiftProj:LiftProj 0
Instance33
Objective;Best_Integer;Best_Bound
304.9439;671.2898;304.9439
integral;304.9870;304.9870
CPXPARAM_MIP_Cuts_Gomory-LiftProj:Gomory 0
CPXPARAM_MIP_Cuts_Gomory-LiftProj:LiftProj 0
Instance34
Objective;Best_Integer;Best_Bound
304.9439;548.6165;304.9439
307.4500;522.3973;Cuts:6
316.4552;462.2964;Cuts:12
319.9428;392.1998;Cuts:11
324.6389;392.1998;Cuts:8
327.7930;392.1998;Cuts:15
328.7415;392.1998;LiftProj:6
329.0631;392.1998;LiftProj:5
329.9942;392.1998;LiftProj:4
337.1155;392.1998;Cuts:15
337.7182;392.1998;Cuts:8
338.4233;392.1998;Cuts:8
340.5853;392.1998;Cuts:8
342.3005;392.1998;LiftProj:6
342.9973;392.1998;LiftProj:6
343.7261;392.1998;LiftProj:5
345.7628;392.1998;LiftProj:9
347.8246;392.1998;LiftProj:4
348.4185;392.1998;LiftProj:6
348.4563;392.1998;LiftProj:3
350.9729;392.1998;LiftProj:5
351.2928;392.1998;LiftProj:6
352.0556;392.1998;LiftProj:4
352.0730;392.1998;LiftProj:6
354.5785;392.1998;354.6203
CPXPARAM_MIP_Cuts_Gomory-LiftProj:Gomory 19
CPXPARAM_MIP_Cuts_Gomory-LiftProj:LiftProj 1
Instance35
Objective;Best_Integer;Best_Bound
integral;363.5184;363.5184
CPXPARAM_MIP_Cuts_Gomory-LiftProj:Gomory 0
CPXPARAM_MIP_Cuts_Gomory-LiftProj:LiftProj 0
Instance36
Objective;Best_Integer;Best_Bound
431.0120;643.3001;431.0120
434.0791;591.9356;Fract:6
440.3754;591.9356;Cuts:9
444.2818;534.0033;Cuts:7
447.0611;513.0512;Cuts:11
448.9262;513.0512;Cuts:7
449.5253;513.0512;Cuts:7
450.1218;497.5652;LiftProj:5
450.7596;497.5652;Cuts:7
451.6912;497.5652;Cuts:7
452.6672;497.5652;Cuts:9
453.1451;497.5652;LiftProj:7
453.9342;497.5652;LiftProj:6
454.5607;497.5652;LiftProj:9
455.1454;497.5652;LiftProj:7
455.2164;497.5652;LiftProj:6
455.8132;497.5652;LiftProj:8
456.0876;497.5652;LiftProj:5
456.2502;497.5652;LiftProj:5
456.2607;497.5652;LiftProj:7
456.6520;497.5652;LiftProj:7
457.4938;497.5652;LiftProj:5
458.8567;497.5652;LiftProj:5
459.2222;497.5652;LiftProj:6
459.6740;497.5652;LiftProj:5
459.7600;497.5652;LiftProj:5
460.2923;497.5652;460.9536
CPXPARAM_MIP_Cuts_Gomory-LiftProj:Gomory 18
CPXPARAM_MIP_Cuts_Gomory-LiftProj:LiftProj 0
Instance37
Objective;Best_Integer;Best_Bound
integral;431.0120;431.0120
CPXPARAM_MIP_Cuts_Gomory-LiftProj:Gomory 0
CPXPARAM_MIP_Cuts_Gomory-LiftProj:LiftProj 0
Instance38
Objective;Best_Integer;Best_Bound
431.2487;644.4799;431.2487
434.1390;591.9356;Cuts:4
438.8774;591.9356;Cuts:11
445.9251;534.0033;Cuts:11
448.2849;504.0961;Cuts:9
450.9558;504.0961;Cuts:11
452.3755;504.0961;Cuts:8
453.2451;497.5652;Cuts:8
456.4241;497.5652;Cuts:8
457.4423;497.5652;Cuts:11
458.5499;497.5652;LiftProj:8
460.8145;497.5652;Cuts:11
463.6292;497.5652;LiftProj:8
466.4176;497.5652;LiftProj:6
467.1122;497.5652;LiftProj:5
467.4172;497.5652;LiftProj:6
468.4569;497.5652;LiftProj:6
468.5618;497.5652;LiftProj:7
468.8467;497.5652;LiftProj:8
469.0952;497.5652;LiftProj:6
469.4030;497.5652;LiftProj:8
469.4635;497.5652;LiftProj:5
469.7714;497.5652;LiftProj:4
469.9115;497.5652;LiftProj:7
471.3689;497.5652;LiftProj:7
471.6399;497.5652;LiftProj:6
471.7798;497.5652;LiftProj:4
471.8664;497.5652;LiftProj:4
471.8664;497.5652;471.9726
CPXPARAM_MIP_Cuts_Gomory-LiftProj:Gomory 16
CPXPARAM_MIP_Cuts_Gomory-LiftProj:LiftProj 0
Instance39
Objective;Best_Integer;Best_Bound
cutoff;451.8439;34
cutoff;451.8439;34
CPXPARAM_MIP_Cuts_Gomory-LiftProj:Gomory 0
CPXPARAM_MIP_Cuts_Gomory-LiftProj:LiftProj 0
